[97mSOLVER - Computes the weighted upper irredundant/domination number.
Made in 2018-2020 by Daniel Severin.
[37m[33mStatistics:
  |V| = 47, |E| = 236 (density = 21.8316%).
  Initial bounds:  LB = 0, UB = 47.
Diameter of G: 2
[37m[97mClassic UB = w(V) - min { w(N[v] - {u}) : v in V, u in N[v] } = 42
[37mNew bounds:  LB = 23, UB = 41.
[31mSolution (card = 23, weight = 23):
  private of 23 is 23
  private of 24 is 24
  private of 35 is 35
  private of 34 is 34
  private of 27 is 27
  private of 38 is 38
  private of 43 is 43
  private of 29 is 29
  private of 40 is 40
  private of 32 is 32
  private of 41 is 41
  private of 39 is 39
  private of 37 is 37
  private of 31 is 31
  private of 33 is 33
  private of 44 is 44
  private of 26 is 26
  private of 30 is 30
  private of 36 is 36
  private of 25 is 25
  private of 42 is 42
  private of 28 is 28
  private of 45 is 45
[37m[96mTime elapsed for heuristic = 0.02 sec.
[37m[35m
Complement of the transformed graph:
  |V| = 519, |E| = 71035 (density = 52.8452%).
[37m[97mModel has 2209 variables and 2162 constraints.
[37mTried aggregator 1 time.
MIP Presolve eliminated 738 rows and 0 columns.
MIP Presolve modified 1302 coefficients.
Reduced MIP has 1424 rows, 519 columns, and 48078 nonzeros.
Reduced MIP has 519 binaries, 0 generals, 0 SOSs, and 0 indicators.
Presolve time = 0.21 sec. (320.26 ticks)
Tried aggregator 1 time.
Reduced MIP has 1424 rows, 519 columns, and 48078 nonzeros.
Reduced MIP has 519 binaries, 0 generals, 0 SOSs, and 0 indicators.
Presolve time = 0.04 sec. (59.86 ticks)
Clique table members: 1424.
MIP emphasis: balance optimality and feasibility.
MIP search method: dynamic search.
Parallel mode: none, using 1 thread.
Root relaxation solution time = 0.06 sec. (104.75 ticks)

        Nodes                                         Cuts/
   Node  Left     Objective  IInf  Best Integer    Best Bound    ItCnt     Gap

      0     0       24.0075   157                     24.0075      982         
      0     0        cutoff                                        990         
Elapsed time = 0.40 sec. (588.77 ticks, tree = 0.01 MB, solutions = 0)

Clique cuts applied:  40

Root node processing (before b&c):
  Real time             =    0.40 sec. (588.77 ticks)
Sequential b&c:
  Real time             =    0.00 sec. (0.00 ticks)
                          ------------
Total (root+branch&cut) =    0.40 sec. (588.77 ticks)
Number of nodes evaluated: 0
[92mInfeasible. Therefore, the solution given by the heuristic is optimal!
[37m[31mSolution (card = 23, weight = 23):
  private of 23 is 23
  private of 24 is 24
  private of 35 is 35
  private of 34 is 34
  private of 27 is 27
  private of 38 is 38
  private of 43 is 43
  private of 29 is 29
  private of 40 is 40
  private of 32 is 32
  private of 41 is 41
  private of 39 is 39
  private of 37 is 37
  private of 31 is 31
  private of 33 is 33
  private of 44 is 44
  private of 26 is 26
  private of 30 is 30
  private of 36 is 36
  private of 25 is 25
  private of 42 is 42
  private of 28 is 28
  private of 45 is 45
[37m[96mTime elapsed during optimization = 0.39 sec.
[37mCoq certificate written in certificate.v
Reading graph from output.dimacs...OK
Searching for a single maximum size clique...
  2/519 (max  1)  0.00 s  (0.00 s/round)
 24/519 (max  2)  0.00 s  (0.00 s/round)
 35/519 (max  3)  0.00 s  (0.00 s/round)
 64/519 (max  4)  0.00 s  (0.00 s/round)
 92/519 (max  5)  0.00 s  (0.00 s/round)
119/519 (max  6)  0.00 s  (0.00 s/round)
136/519 (max  7)  0.00 s  (0.00 s/round)
166/519 (max  8)  0.00 s  (0.00 s/round)
193/519 (max  9)  0.00 s  (0.00 s/round)
220/519 (max 10)  0.00 s  (0.00 s/round)
243/519 (max 11)  0.00 s  (0.00 s/round)
266/519 (max 12)  0.00 s  (0.00 s/round)
296/519 (max 13)  0.00 s  (0.00 s/round)
307/519 (max 14)  0.00 s  (0.00 s/round)
322/519 (max 15)  0.00 s  (0.00 s/round)
337/519 (max 16)  0.00 s  (0.00 s/round)
350/519 (max 17)  0.00 s  (0.00 s/round)
364/519 (max 18)  0.00 s  (0.00 s/round)
380/519 (max 19)  0.00 s  (0.00 s/round)
414/519 (max 20)  0.00 s  (0.00 s/round)
440/519 (max 21)  0.00 s  (0.00 s/round)
459/519 (max 22)  0.00 s  (0.00 s/round)
464/519 (max 23)  0.00 s  (0.00 s/round)
519/519 (max 23)  0.02 s  (0.00 s/round)
